Minimize
  - 67 y_0 - 68 y_1 - 103 y_2 - 74 y_3 - 78 y_4 - 109 y_5 - 74 y_6 - 65 y_7
   - 68 y_8 - 88 y_9 - 85 y_10 - 107 y_11 - 46 y_12 - 87 y_13 - 114 y_14
   - 51 y_15 - 55 y_16 - 110 y_17 - 52 y_18 - 93 y_19 - 72 y_20 - 70 y_21
   - 91 y_22 - 115 y_23 - 23 y_24 - 54 y_25 - 62 y_26 - 77 y_27 - 43 y_28
   - 112 y_29 - 68 y_30 - 123 y_31 - 93 y_32 - 97 y_33 - 37 y_34 - 60 y_35
   - 78 y_36 - 86 y_37 - 80 y_38 - 121 y_39 - 46 y_40 - 77 y_41 - 95 y_42
   - 91 y_43 - 53 y_44 - 78 y_45 - 94 y_46 - 96 y_47 - 87 y_49
   + 3873 Constant
Subject To
 c_0: y_9 = 1
 c_1_0: y_0 + y_20 + y_30 >= 1
 c_1_1: y_1 + y_26 >= 1
 c_1_2: y_2 >= 1
 c_1_3: y_3 + y_6 + y_21 + y_41 >= 1
 c_1_4: y_4 + y_9 + y_36 + y_37 >= 1
 c_1_5: y_5 + y_11 + y_14 + y_17 >= 1
 c_1_6: y_3 + y_6 + y_21 + y_38 >= 1
 c_1_7: y_7 >= 1
 c_1_8: y_8 >= 1
 c_1_9: y_4 + y_9 + y_13 + y_19 + y_22 + y_37 >= 1
 c_1_10: y_10 + y_27 >= 1
 c_1_11: y_5 + y_11 + y_14 + y_29 >= 1
 c_1_12: y_12 + y_15 >= 1
 c_1_13: y_9 + y_13 + y_19 + y_22 + y_36 + y_37 >= 1
 c_1_14: y_5 + y_11 + y_14 + y_17 + y_31 + y_39 >= 1
 c_1_15: y_12 + y_15 >= 1
 c_1_16: y_16 >= 1
 c_1_17: y_5 + y_14 + y_17 >= 1
 c_1_18: y_18 + y_28 + y_40 >= 1
 c_1_19: y_9 + y_13 + y_19 + y_22 >= 1
 c_1_20: y_0 + y_20 + y_30 >= 1
 c_1_21: y_3 + y_6 + y_21 + y_41 >= 1
 c_1_22: y_9 + y_13 + y_19 + y_22 + y_37 >= 1
 c_1_23: y_23 >= 1
 c_1_24: y_24 >= 1
 c_1_25: y_25 + y_35 >= 1
 c_1_26: y_1 + y_26 >= 1
 c_1_27: y_10 + y_27 >= 1
 c_1_28: y_18 + y_28 + y_40 >= 1
 c_1_29: y_11 + y_29 >= 1
 c_1_30: y_0 + y_20 + y_30 >= 1
 c_1_31: y_14 + y_31 + y_39 >= 1
 c_1_32: y_32 >= 1
 c_1_33: y_33 + y_47 >= 1
 c_1_34: y_34 >= 1
 c_1_35: y_25 + y_35 >= 1
 c_1_36: y_4 + y_13 + y_36 >= 1
 c_1_37: y_4 + y_9 + y_13 + y_22 + y_37 >= 1
 c_1_38: y_6 + y_38 >= 1
 c_1_39: y_14 + y_31 + y_39 >= 1
 c_1_40: y_18 + y_28 + y_40 >= 1
 c_1_41: y_3 + y_21 + y_41 >= 1
 c_1_42: y_42 >= 1
 c_1_43: y_43 + y_46 >= 1
 c_1_44: y_44 >= 1
 c_1_45: y_45 >= 1
 c_1_46: y_43 + y_46 >= 1
 c_1_47: y_33 + y_47 >= 1
 c_1_48: y_48 >= 1
 c_1_49: y_49 >= 1
Bounds
 Constant = 1
Binaries
 y_0 y_1 y_2 y_3 y_4 y_5 y_6 y_7 y_8 y_9 y_10 y_11 y_12 y_13 y_14 y_15 y_16
 y_17 y_18 y_19 y_20 y_21 y_22 y_23 y_24 y_25 y_26 y_27 y_28 y_29 y_30 y_31
 y_32 y_33 y_34 y_35 y_36 y_37 y_38 y_39 y_40 y_41 y_42 y_43 y_44 y_45 y_46
 y_47 y_48 y_49
End
